(declare-fun var0 () String)
(assert (str.in.re var0 (re.++ (re.+ (re.union (str.to.re "aaa") (str.to.re "bbb"))) (re.++ (re.* (re.+ (str.to.re "999"))) (re.++ (re.+ (re.union (str.to.re "77") (str.to.re "888"))) (re.++ (re.* (re.union (str.to.re "5") (str.to.re "6"))) (re.++ (re.+ (re.union (str.to.re "333") (str.to.re "44"))) (re.++ (re.union (re.* (str.to.re "11")) (re.+ (str.to.re "22"))) (re.++ (re.* (re.+ (str.to.re "0"))) (re.++ (re.+ (re.* (str.to.re "~"))) (re.++ (re.union (re.+ (str.to.re "{{{")) (re.union (str.to.re "|") (str.to.re "}}"))) (re.++ (re.+ (re.union (str.to.re "_") (str.to.re "```"))) (re.++ (re.+ (re.+ (str.to.re "^^"))) (re.++ (re.union (re.* (str.to.re "\\\\")) (re.+ (str.to.re "]]]"))) (re.++ (re.+ (re.union (str.to.re "@") (str.to.re "[[["))) (re.++ (re.union (re.+ (str.to.re ">")) (re.* (str.to.re "???"))) (re.++ (re.union (re.+ (str.to.re ";;;")) (re.union (str.to.re "<<<") (str.to.re "==="))) (re.++ (re.union (re.+ (str.to.re "//")) (re.* (str.to.re ":"))) (re.++ (re.+ (re.+ (str.to.re ".."))) (re.++ (re.* (re.* (str.to.re "--"))) (re.++ (re.* (re.+ (str.to.re ",,"))) (re.++ (re.+ (re.+ (str.to.re "++"))) (re.++ (re.+ (re.+ (str.to.re "**"))) (re.++ (re.+ (re.+ (str.to.re "))"))) (re.++ (re.union (re.union (str.to.re "&") (str.to.re "'")) (re.* (str.to.re "("))) (re.++ (re.* (re.+ (str.to.re "%%%"))) (re.++ (re.* (re.union (str.to.re "###") (str.to.re "$$$"))) (re.++ (re.union (re.* (str.to.re "!!!")) (re.* (str.to.re """"""""))) (re.++ (re.* (re.* (str.to.re "Z"))) (re.++ (re.+ (re.+ (str.to.re "YYY"))) (re.++ (re.* (re.* (str.to.re "X"))) (re.++ (re.+ (re.* (str.to.re "WW"))) (re.++ (re.+ (re.* (str.to.re "VV"))) (re.++ (re.union (re.* (str.to.re "SSS")) (re.union (str.to.re "TT") (str.to.re "UUU"))) (re.++ (re.union (re.* (str.to.re "P")) (re.union (str.to.re "Q") (str.to.re "R"))) (re.++ (re.* (re.union (str.to.re "NNN") (str.to.re "OO"))) (re.++ (re.* (re.+ (str.to.re "M"))) (re.++ (re.* (re.+ (str.to.re "LLL"))) (re.++ (re.+ (re.* (str.to.re "KK"))) (re.++ (re.union (re.+ (str.to.re "III")) (re.+ (str.to.re "JJJ"))) (re.++ (re.union (re.+ (str.to.re "GGG")) (re.* (str.to.re "HH"))) (re.++ (re.* (re.union (str.to.re "EEE") (str.to.re "FFF"))) (re.++ (re.union (re.+ (str.to.re "C")) (re.* (str.to.re "DD"))) (re.++ (re.union (re.union (str.to.re "zz") (str.to.re "AAA")) (re.+ (str.to.re "BBB"))) (re.++ (re.+ (re.+ (str.to.re "yyy"))) (re.++ (re.union (re.+ (str.to.re "www")) (re.* (str.to.re "x"))) (re.++ (re.* (re.+ (str.to.re "vvv"))) (re.++ (re.* (re.* (str.to.re "uuu"))) (re.++ (re.+ (re.* (str.to.re "tt"))) (re.++ (re.* (re.+ (str.to.re "sss"))) (re.++ (re.+ (re.+ (str.to.re "rrr"))) (re.++ (re.* (re.+ (str.to.re "qq"))) (re.++ (re.* (re.union (str.to.re "o") (str.to.re "ppp"))) (re.++ (re.* (re.union (str.to.re "m") (str.to.re "nnn"))) (re.++ (re.* (re.* (str.to.re "lll"))) (re.++ (re.+ (re.+ (str.to.re "k"))) (re.++ (re.+ (re.union (str.to.re "i") (str.to.re "jjj"))) (re.++ (re.union (re.* (str.to.re "f")) (re.union (str.to.re "ggg") (str.to.re "h"))) (re.++ (re.union (re.* (str.to.re "ddd")) (re.* (str.to.re "eee"))) (re.++ (re.union (re.+ (str.to.re "bb")) (re.+ (str.to.re "c"))) (re.++ (re.+ (re.union (str.to.re "99") (str.to.re "a"))) (re.++ (re.union (re.* (str.to.re "6")) (re.union (str.to.re "77") (str.to.re "88"))) (re.++ (re.union (re.+ (str.to.re "44")) (re.+ (str.to.re "55"))) (re.++ (re.* (re.+ (str.to.re "333"))) (re.++ (re.+ (re.* (str.to.re "2"))) (re.++ (re.union (re.union (str.to.re "}}") (str.to.re "~~~")) (re.union (str.to.re "00") (str.to.re "11"))) (re.++ (re.+ (re.+ (str.to.re "||"))) (re.++ (re.+ (re.+ (str.to.re "{"))) (re.++ (re.+ (re.union (str.to.re "_") (str.to.re "```"))) (re.++ (re.union (re.* (str.to.re "]]")) (re.+ (str.to.re "^"))) (re.++ (re.+ (re.union (str.to.re "[") (str.to.re "\\\\\\"))) (re.++ (re.union (re.+ (str.to.re "??")) (re.* (str.to.re "@"))) (re.++ (re.* (re.union (str.to.re "=") (str.to.re ">>>"))) (re.++ (re.union (re.* (str.to.re ";;;")) (re.* (str.to.re "<<"))) (re.++ (re.* (re.* (str.to.re "::"))) (re.++ (re.* (re.* (str.to.re "///"))) (re.++ (re.* (re.union (str.to.re "---") (str.to.re ".."))) (re.++ (re.* (re.+ (str.to.re ",,"))) (re.++ (re.* (re.+ (str.to.re "+++"))) (re.++ (re.+ (re.+ (str.to.re "***"))) (re.++ (re.* (re.+ (str.to.re ")))"))) (re.++ (re.* (re.+ (str.to.re "((("))) (re.++ (re.union (re.union (str.to.re "%") (str.to.re "&&&")) (re.+ (str.to.re "'"))) (re.++ (re.+ (re.union (str.to.re "###") (str.to.re "$"))) (re.++ (re.union (re.* (str.to.re "!!")) (re.+ (str.to.re """"""""))) (re.++ (re.* (re.* (str.to.re "ZZZ"))) (re.++ (re.* (re.* (str.to.re "Y"))) (re.++ (re.+ (re.+ (str.to.re "XX"))) (re.++ (re.* (re.+ (str.to.re "WWW"))) (re.++ (re.+ (re.* (str.to.re "VV"))) (re.++ (re.union (re.+ (str.to.re "T")) (re.* (str.to.re "UU"))) (re.++ (re.+ (re.* (str.to.re "SSS"))) (re.++ (re.+ (re.+ (str.to.re "RR"))) (re.++ (re.* (re.* (str.to.re "QQQ"))) (re.++ (re.union (re.* (str.to.re "N")) (re.union (str.to.re "O") (str.to.re "P"))) (re.++ (re.* (re.+ (str.to.re "M"))) (re.++ (re.+ (re.* (str.to.re "LLL"))) (re.++ (re.+ (re.union (str.to.re "JJJ") (str.to.re "KK"))) (re.++ (re.union (re.* (str.to.re "H")) (re.+ (str.to.re "III"))) (re.++ (re.+ (re.union (str.to.re "F") (str.to.re "G"))) (re.++ (re.* (re.* (str.to.re "EE"))) (re.++ (re.* (re.+ (str.to.re "DD"))) (re.++ (re.+ (re.* (str.to.re "CC"))) (re.++ (re.* (re.+ (str.to.re "BBB"))) (re.++ (re.* (re.+ (str.to.re "AAA"))) (re.++ (re.+ (re.+ (str.to.re "z"))) (re.++ (re.* (re.+ (str.to.re "yyy"))) (re.++ (re.* (re.+ (str.to.re "xx"))) (re.++ (re.* (re.union (str.to.re "vvv") (str.to.re "w"))) (re.++ (re.* (re.* (str.to.re "uu"))) (re.++ (re.union (re.* (str.to.re "s")) (re.* (str.to.re "t"))) (re.++ (re.* (re.+ (str.to.re "rr"))) (re.++ (re.* (re.* (str.to.re "qq"))) (re.++ (re.* (re.* (str.to.re "pp"))) (re.++ (re.union (re.union (str.to.re "m") (str.to.re "n")) (re.+ (str.to.re "oo"))) (re.++ (re.+ (re.* (str.to.re "lll"))) (re.++ (re.* (re.union (str.to.re "j") (str.to.re "k"))) (re.++ (re.+ (re.union (str.to.re "hh") (str.to.re "ii"))) (re.++ (re.+ (re.* (str.to.re "gg"))) (re.++ (re.+ (re.+ (str.to.re "fff"))) (re.++ (re.* (re.union (str.to.re "dd") (str.to.re "ee"))) (re.++ (re.union (re.* (str.to.re "aaa")) (re.union (str.to.re "bb") (str.to.re "ccc"))) (re.++ (re.union (re.+ (str.to.re "88")) (re.* (str.to.re "999"))) (re.++ (re.+ (re.union (str.to.re "6") (str.to.re "77"))) (re.++ (re.union (re.* (str.to.re "33")) (re.union (str.to.re "44") (str.to.re "555"))) (re.++ (re.+ (re.* (str.to.re "222"))) (re.++ (re.union (re.+ (str.to.re "0")) (re.* (str.to.re "1"))) (re.++ (re.+ (re.+ (str.to.re "~"))) (re.++ (re.* (re.+ (str.to.re "}"))) (re.++ (re.* (re.* (str.to.re "|"))) (re.++ (re.+ (re.* (str.to.re "{{{"))) (re.++ (re.+ (re.union (str.to.re "_") (str.to.re "```"))) (re.++ (re.+ (re.+ (str.to.re "^^"))) (re.++ (re.union (re.* (str.to.re "[[[")) (re.union (str.to.re "\\\\") (str.to.re "]]]"))) (re.++ (re.* (re.union (str.to.re "??") (str.to.re "@@@"))) (re.++ (re.union (re.+ (str.to.re "<<")) (re.union (str.to.re "==") (str.to.re ">"))) (re.++ (re.union (re.* (str.to.re ":::")) (re.+ (str.to.re ";;;"))) (re.++ (re.union (re.+ (str.to.re ".")) (re.+ (str.to.re "/"))) (re.++ (re.+ (re.* (str.to.re "-"))) (re.++ (re.* (re.+ (str.to.re ","))) (re.++ (re.union (re.union (str.to.re ")))") (str.to.re "***")) (re.+ (str.to.re "+"))) (re.++ (re.* (re.* (str.to.re "(("))) (re.++ (re.union (re.* (str.to.re "&&&")) (re.* (str.to.re "'''"))) (re.++ (re.* (re.+ (str.to.re "%%"))) (re.++ (re.union (re.+ (str.to.re """")) (re.union (str.to.re "#") (str.to.re "$$"))) (re.++ (re.+ (re.* (str.to.re "!!!"))) (re.++ (re.union (re.union (str.to.re "XXX") (str.to.re "Y")) (re.+ (str.to.re "ZZ"))) (re.++ (re.* (re.* (str.to.re "W"))) (re.++ (re.* (re.union (str.to.re "UU") (str.to.re "VVV"))) (re.++ (re.union (re.* (str.to.re "R")) (re.union (str.to.re "SS") (str.to.re "T"))) (re.++ (re.* (re.+ (str.to.re "QQQ"))) (re.++ (re.* (re.* (str.to.re "PPP"))) (re.++ (re.+ (re.+ (str.to.re "OO"))) (re.++ (re.* (re.* (str.to.re "N"))) (re.++ (re.* (re.+ (str.to.re "MM"))) (re.++ (re.union (re.* (str.to.re "K")) (re.+ (str.to.re "LLL"))) (re.++ (re.union (re.union (str.to.re "HH") (str.to.re "III")) (re.* (str.to.re "J"))) (re.++ (re.union (re.* (str.to.re "F")) (re.+ (str.to.re "GG"))) (re.++ (re.union (re.* (str.to.re "CC")) (re.union (str.to.re "D") (str.to.re "EE"))) (re.++ (re.+ (re.* (str.to.re "BB"))) (re.++ (re.* (re.* (str.to.re "AA"))) (re.++ (re.union (re.union (str.to.re "w") (str.to.re "xx")) (re.union (str.to.re "yyy") (str.to.re "zzz"))) (re.++ (re.+ (re.union (str.to.re "uu") (str.to.re "vvv"))) (re.++ (re.union (re.union (str.to.re "rr") (str.to.re "sss")) (re.* (str.to.re "tt"))) (re.++ (re.+ (re.union (str.to.re "p") (str.to.re "q"))) (re.++ (re.+ (re.+ (str.to.re "ooo"))) (re.++ (re.union (re.union (str.to.re "kk") (str.to.re "lll")) (re.union (str.to.re "mm") (str.to.re "n"))) (re.++ (re.union (re.* (str.to.re "ii")) (re.+ (str.to.re "jj"))) (re.++ (re.union (re.union (str.to.re "f") (str.to.re "g")) (re.* (str.to.re "hh"))) (re.++ (re.union (re.* (str.to.re "ddd")) (re.+ (str.to.re "eee"))) (re.++ (re.* (re.* (str.to.re "c"))) (re.++ (re.union (re.* (str.to.re "9")) (re.union (str.to.re "a") (str.to.re "b"))) (re.++ (re.union (re.+ (str.to.re "77")) (re.* (str.to.re "88"))) (re.++ (re.+ (re.* (str.to.re "6"))) (re.++ (re.* (re.+ (str.to.re "555"))) (re.++ (re.* (re.* (str.to.re "4"))) (re.++ (re.+ (re.union (str.to.re "222") (str.to.re "333"))) (re.+ (re.union (str.to.re "0") (str.to.re "11"))))))))))))))))))))))))))))))))))))))))))))))))))))))))))))))))))))))))))))))))))))))))))))))))))))))))))))))))))))))))))))))))))))))))))))))))))))))))))))))))))))))))))))))))))))
(check-sat)